
  32    4
  10   10   10   10

   0   0   0   0   0   5 2 28 29 30 31 
   7   1   0   1   1   1 3 
   1   5   1   3   0   2 27 4 
   6   1   5   0   3   1 5 
   8   3   4   4   0   1 6 
   3   5   4   3   0   1 7 
   7   7   0   6   4   1 8 
   3   7   3   0   2   2 26 9 
   3   3   5   3   0   1 10 
  10   4   2   0   3   1 11 
  10   0   5   3   4   1 12 
   7   0   5   4   4   1 13 
   2   3   3   0   3   1 14 
   4   5   6   0   6   1 15 
   5   5   2   5   0   1 16 
   3   3   0   7   2   1 17 
   2   3   0   4   2   1 18 
  10   0   2   4   5   1 19 
  10   2   7   0   3   1 20 
   4   4   7   0   7   1 21 
   4   6   2   6   0   1 22 
   9   0   6   3   2   1 23 
   1   3   2   7   0   1 24 
   2   1   4   0   5   1 25 
   5   5   4   5   0   1 32
   2   8   0   2   4   1 32
  10   0   5   2   8   1 32
   9   1   3   2   0   1 32
   4   0   3   3   8   1 32
   4   5   5   4   0   1 32
   3   6   5   7   0   1 32
   0   0   0   0   0   0 
